c Output_time 26.03.2020 18:13:21_+0100 1585242801553898767
c ** Program information **
c program_name                          "QBRG_debug"
c version                               "0.3.20"
c date                                  "25.3.2020"
c gid_id                                "673970833836058123f633335630c185360d632e"
c author                                "Oliver Kullmann"
c url                                   "https://github.com/OKullmann/oklibrary/blob/master/Satisfiability/Transformers/Generators/Random/QBRG.cpp"
c ** Machine information **
c machine_name                          "chyna-Lenovo-G50-70"
c bogomips                              3791.08
c ** Compilation information **
c compiler_version                      "g++ 7.5.0"
c compilation_date                      "Mar_26_2020 11:16:30"
c compilation_options                   "--std=c++17 -pedantic -fmax-errors=5 -Wall -Wextra -g -D_GLIBCXX_DEBUG"
c NDEBUG                                0
c OPTIMIZE                              0
c ** Parameters **
c command-line                          "./QBRG_debug" "e40 a40 40" "434*1,1|2-2,1|3-3,1" "" "1,t" ""
c output                                "QuBlRaGe_120_434_1585242801427605912.qdimacs"
c options                               "filtered,renamed"
c num_quantifier_blocks                 3
c  quantifier_blocks                    1:e1-40 2:a41-80 3:e81-120
c num_clause-blocks                     1
c  clause-blocks                        434 * {1-40,1,1/2} | {41-80,1,1/2} | {81-120,1,1/2}
c num_e-seeds                           30+2=32
c  e-seeds                              1 0 1 0 4 120 2 40 1 40 0 40 1 434 3 1 1 1 1 2 2 2 1 1 2 3 3 1 1 2 1 1585242801427605200
p cnf 120 434
e 1 2 3 4 5 6 7 8 9 10 11 12 13 14 15 16 17 18 19 20 21 22 23 24 25 26 27 28 29 30 31 32 33 34 35 36 37 38 39 40 0
a 41 42 43 44 45 46 47 48 49 50 51 52 53 54 55 56 57 58 59 60 61 62 63 64 65 66 67 68 69 70 71 72 73 74 75 76 77 78 79 80 0
e 81 82 83 84 85 86 87 88 89 90 91 92 93 94 95 96 97 98 99 100 101 102 103 104 105 106 107 108 109 110 111 112 113 114 115 116 117 118 119 120 0
-4 -41 -81 0
-35 -41 -81 0
-21 42 -81 0
-29 43 -81 0
-15 -44 -81 0
-37 51 -81 0
-4 -53 -81 0
11 55 -81 0
-2 -56 -81 0
25 -57 -81 0
-31 -57 -81 0
9 -59 -81 0
15 -69 -81 0
8 -77 -81 0
21 49 81 0
7 52 -82 0
-2 62 -82 0
-32 77 -82 0
-33 78 -82 0
34 78 -82 0
-33 43 82 0
29 -58 82 0
37 42 -83 0
27 48 -83 0
15 -63 -83 0
30 69 -83 0
-19 75 -83 0
6 78 -83 0
-17 61 83 0
36 65 83 0
25 69 83 0
25 53 -84 0
-25 59 -84 0
1 -61 -84 0
-39 -67 -84 0
27 69 -84 0
38 76 -84 0
19 -79 -84 0
-36 79 -84 0
-30 43 84 0
-25 46 84 0
-12 55 84 0
-31 56 84 0
-23 -67 84 0
-12 68 84 0
31 -42 -85 0
23 61 -85 0
30 -74 -85 0
28 -80 -85 0
37 -48 85 0
-15 53 85 0
7 56 85 0
-21 45 -86 0
-29 53 -86 0
-34 67 -86 0
-26 70 -86 0
-4 -57 86 0
37 57 86 0
-10 -66 86 0
-38 75 86 0
12 76 86 0
11 -77 86 0
-30 -51 -87 0
27 58 -87 0
-38 62 -87 0
-35 63 -87 0
-39 -71 -87 0
-18 76 -87 0
-16 77 -87 0
37 -79 -87 0
28 43 87 0
-14 -46 87 0
1 48 87 0
30 52 87 0
18 56 87 0
-3 -58 87 0
32 69 87 0
-29 -72 87 0
17 -78 87 0
-21 -80 87 0
-33 -54 -88 0
31 -60 -88 0
-17 -61 -88 0
-26 -67 -88 0
14 -71 -88 0
-19 78 -88 0
-40 43 88 0
-5 44 88 0
8 -50 88 0
25 77 88 0
6 -49 -89 0
21 -50 -89 0
-29 50 -89 0
-3 -54 -89 0
4 -60 -89 0
16 -70 -89 0
-37 -72 -89 0
-6 -74 -89 0
12 80 -89 0
30 -44 89 0
8 -45 89 0
-16 46 89 0
-11 47 89 0
31 51 89 0
32 73 89 0
28 -76 89 0
-17 -44 -90 0
-40 -44 -90 0
38 -45 -90 0
32 51 -90 0
-24 69 -90 0
39 73 -90 0
28 44 90 0
-36 -46 90 0
-7 -59 90 0
-18 64 90 0
22 50 -91 0
38 55 -91 0
17 61 -91 0
-11 68 -91 0
-12 41 91 0
-35 59 91 0
35 -64 91 0
-21 64 91 0
-16 -66 91 0
-13 80 91 0
-30 80 91 0
4 42 -92 0
37 52 -92 0
1 61 -92 0
20 -68 -92 0
-14 -69 -92 0
36 69 -92 0
4 77 -92 0
-40 -51 92 0
26 51 92 0
-14 -54 92 0
-40 -54 92 0
6 54 92 0
12 72 92 0
21 -75 92 0
19 -80 92 0
32 47 -93 0
1 -51 -93 0
-6 41 93 0
30 53 93 0
-5 58 93 0
28 58 93 0
20 62 93 0
14 -68 93 0
9 46 -94 0
-10 -56 -94 0
20 77 -94 0
-23 -80 -94 0
25 80 -94 0
-19 41 94 0
7 44 94 0
-22 -56 94 0
-3 -61 94 0
1 -64 94 0
-12 -71 94 0
25 -75 94 0
26 -79 94 0
-29 43 -95 0
3 -49 -95 0
6 60 -95 0
5 70 -95 0
-10 70 -95 0
13 -72 -95 0
25 -76 -95 0
29 -78 -95 0
-33 43 95 0
23 -51 95 0
-14 -52 95 0
35 72 95 0
-16 49 -96 0
-37 56 -96 0
37 -61 -96 0
18 -63 -96 0
-18 70 -96 0
-21 70 -96 0
18 58 96 0
39 68 96 0
-15 -69 96 0
-13 43 -97 0
15 -45 -97 0
5 50 -97 0
-33 -52 -97 0
-36 -59 -97 0
14 66 -97 0
5 -75 -97 0
-15 77 -97 0
-15 -42 97 0
2 -53 97 0
24 -53 97 0
26 58 97 0
10 -63 97 0
9 70 97 0
2 -73 97 0
18 75 97 0
1 44 -98 0
9 -53 -98 0
39 -58 -98 0
24 -60 -98 0
-14 72 -98 0
-32 -77 -98 0
11 42 98 0
37 62 98 0
15 -65 98 0
8 -80 98 0
-25 -43 -99 0
-24 -44 -99 0
22 47 -99 0
-26 50 -99 0
-5 67 -99 0
18 -69 -99 0
-14 -70 -99 0
39 -72 -99 0
-18 -45 99 0
34 -64 99 0
-24 -65 99 0
-18 -66 99 0
-22 -67 99 0
32 73 99 0
-32 46 -100 0
14 53 -100 0
20 61 -100 0
36 -68 -100 0
-11 73 -100 0
15 -75 -100 0
-12 75 -100 0
22 76 -100 0
39 -52 100 0
-4 -59 100 0
3 -63 100 0
-13 -80 100 0
8 43 -101 0
12 48 -101 0
39 49 -101 0
5 52 -101 0
39 -56 -101 0
-8 -67 -101 0
-4 80 -101 0
-39 -56 101 0
-14 57 101 0
2 67 101 0
35 -68 101 0
-5 -76 101 0
35 -44 -102 0
23 49 -102 0
6 -55 -102 0
39 -55 -102 0
9 -56 -102 0
-35 -57 -102 0
34 -68 -102 0
-30 72 -102 0
30 -74 -102 0
-36 -74 -102 0
4 -75 -102 0
-23 -45 102 0
-18 59 102 0
40 63 102 0
4 -74 102 0
36 -45 -103 0
-10 -51 -103 0
-12 -60 -103 0
-23 62 -103 0
-31 77 -103 0
-36 -50 103 0
26 52 103 0
-22 55 103 0
25 -57 103 0
-16 57 103 0
25 -62 103 0
20 47 -104 0
-40 -52 -104 0
-36 65 -104 0
37 -72 -104 0
-40 76 -104 0
4 42 104 0
10 -50 104 0
-23 53 104 0
-27 80 104 0
-14 65 -105 0
21 -75 -105 0
-6 75 -105 0
21 -77 -105 0
33 -78 -105 0
3 -42 105 0
-26 43 105 0
-30 -57 105 0
14 -60 105 0
39 68 105 0
23 42 -106 0
39 -50 -106 0
25 50 -106 0
3 63 -106 0
-13 64 -106 0
-32 67 -106 0
30 -68 -106 0
17 -77 -106 0
-21 78 -106 0
-35 -41 106 0
25 -57 106 0
-20 59 106 0
-18 -61 106 0
37 62 106 0
40 69 106 0
23 70 106 0
-39 -75 106 0
27 77 106 0
18 -60 -107 0
-12 -77 -107 0
-18 80 -107 0
-40 -64 107 0
15 70 107 0
-24 -74 -108 0
24 -56 108 0
21 58 108 0
-9 60 108 0
11 -76 108 0
39 -48 -109 0
2 49 -109 0
37 52 -109 0
-6 -56 -109 0
6 63 -109 0
5 73 -109 0
10 75 -109 0
31 -80 -109 0
27 48 109 0
-25 59 109 0
37 -60 109 0
22 -75 109 0
-35 75 109 0
-13 76 109 0
-39 -79 109 0
-19 45 -110 0
-10 62 -110 0
23 69 -110 0
32 46 110 0
28 -55 110 0
-34 57 110 0
22 -43 -111 0
5 -56 -111 0
-33 -58 -111 0
-13 67 -111 0
-26 71 -111 0
-18 -73 -111 0
-6 -54 111 0
11 -67 111 0
35 75 111 0
-14 -62 -112 0
26 74 -112 0
-37 76 -112 0
28 -78 -112 0
-32 -42 112 0
40 -42 112 0
-20 45 112 0
31 47 112 0
3 -53 112 0
-18 -65 112 0
-2 -75 112 0
-10 -75 112 0
-21 50 -113 0
-30 53 -113 0
-9 -79 -113 0
3 -43 113 0
16 52 113 0
-12 -64 113 0
-27 69 113 0
4 72 113 0
30 -77 113 0
-39 43 -114 0
13 -44 -114 0
-36 -44 -114 0
1 -66 -114 0
-16 66 -114 0
-32 44 114 0
-17 45 114 0
22 67 114 0
-4 -50 -115 0
35 64 -115 0
-23 -73 -115 0
3 -47 115 0
-4 -53 115 0
7 56 115 0
23 -64 115 0
-22 -47 -116 0
-39 48 -116 0
-28 -60 -116 0
6 -73 -116 0
11 -57 116 0
-7 -64 116 0
-34 50 -117 0
-10 -59 -117 0
2 62 -117 0
36 77 -117 0
20 60 117 0
5 63 117 0
-34 70 117 0
2 74 117 0
10 41 -118 0
23 52 -118 0
3 57 -118 0
22 65 -118 0
-23 -67 -118 0
33 50 118 0
-7 53 118 0
-21 -56 118 0
-27 56 118 0
-16 60 118 0
-19 -64 118 0
3 -75 118 0
-14 79 118 0
-13 41 -119 0
-31 46 -119 0
39 -49 -119 0
-24 -59 -119 0
-28 64 -119 0
-29 70 -119 0
-19 -53 119 0
-37 -57 119 0
-24 -71 119 0
19 -79 119 0
3 -58 -120 0
-10 61 -120 0
-28 61 -120 0
19 -68 -120 0
-40 72 -120 0
17 -80 -120 0
-24 -47 120 0
-11 -54 120 0
-9 54 120 0
-6 -72 120 0
